          16
          20
           1           2          12
           2           7          12
           3           8           6
           4           3           6
           5           3           5
           6           5           5
           7           3          12
           8           3           7
           9           5           7
          10           2           6
          11           3           2
          12           4           2
          13           3           4
          14           4           4
          15           9           2
          16          11           2
